187
0 89 137 9 139 161 11 74 170 78 
110 25 93 38 42 17 77 76 94 171 
109 35 176 140 98 168 106 34 16 141 
120 22 133 86 155 19 107 97 85 126 
115 3 174 178 61 111 146 7 148 116 
70 186 51 105 31 27 135 136 24 14 
157 50 112 182 71 55 45 123 10 177 
100 91 82 12 37 49 20 99 156 181 
53 90 124 47 88 58 40 119 113 92 
129 18 125 117 130 185 29 72 101 160 
81 179 62 43 121 59 122 95 153 5 
169 66 2 56 118 73 23 131 67 128 
150 84 172 13 158 32 143 57 162 33 
64 165 102 104 167 103 52 144 138 96 
15 183 152 75 54 83 30 8 68 173 
132 145 63 163 147 142 6 1 108 180 
127 80 41 69 87 39 164 159 154 79 
46 28 26 21 134 44 65 149 166 4 
36 114 184 151 175 48 60 
